c Random generated cnf formula, satisfiable: false
p cnf 10 50
6 -4 -8 0
2 -3 -8 0
-4 10 1 0
-3 -7 -4 0
-10 -7 -4 0
-1 7 -5 0
-2 9 -6 0
2 8 1 0
-6 -1 5 0
9 -8 -6 0
-2 -6 10 0
-9 1 5 0
-10 -7 6 0
4 7 -6 0
10 4 -3 0
7 -8 10 0
7 -1 -4 0
7 1 2 0
-10 -5 7 0
8 -9 -6 0
-8 -1 6 0
10 -8 6 0
-4 -2 10 0
10 -6 3 0
-6 -7 -10 0
-1 -7 -3 0
1 -4 3 0
4 7 -10 0
2 -1 8 0
-3 -7 6 0
-4 7 -10 0
2 9 -6 0
-2 9 -1 0
-7 10 5 0
-1 6 -3 0
1 10 2 0
10 1 -9 0
4 -8 6 0
-5 8 -6 0
-2 7 3 0
-9 -2 -7 0
10 -7 5 0
5 -10 -2 0
-1 4 -8 0
9 8 5 0
3 -1 4 0
8 7 9 0
4 10 8 0
-6 10 -7 0
-10 -6 -2 0
